c read Graph
c width = 179
c time = 91 ms
c width = 17
c time = 169 ms
c width = 15
c time = 221 ms
c width = 14
c time = 1003 ms
c width = 13
c time = 3276 ms
c width = 13
c time = 4987 ms
s td 173 14 192
b 1 1 2 17
b 2 2 3 17 18
b 3 14 15 31 32
b 4 3 17 18 33
b 5 14 31 32 48
b 6 145 161 162 178
b 7 160 175 176 191
b 8 145 162 178 179
b 9 160 175 190 191
b 10 3 4 5 20
b 11 3 5 19 20 34 49
b 12 5 19 20 34 36 49 51
b 13 19 34 35 36 51
b 14 5 20 34 36 49 51 66
b 15 5 20 36 49 51 66 81
b 16 5 20 22 36 37 51 66 81
b 17 5 20 21 22 37
b 18 5 22 36 37 51 53 66 68 81
b 19 36 51 52 53 68
b 20 5 22 37 51 53 66 68 81 83
b 21 51 66 67 68 83
b 22 5 22 37 53 66 68 81 83 98
b 23 66 81 82 83 98
b 24 5 22 37 39 53 54 68 81 83 98
b 25 5 22 39 53 54 68 71 81 83 86 98 100 101
b 26 53 54 68 71 83 85 86 100 101
b 27 68 83 84 85 100
b 28 53 54 68 70 71 85 86
b 29 53 68 69 70 85
b 30 5 22 39 54 71 81 83 86 98 100 101 115
b 31 5 22 39 54 71 81 86 98 100 101 115 116
b 32 5 22 39 54 71 81 86 98 101 115 116 130 145
b 33 5 22 39 54 71 86 101 115 116 130 131 145
b 34 5 22 39 54 71 86 101 116 130 131 145 146
b 35 5 22 39 54 71 86 101 116 131 145 146 163 180
b 36 5 22 39 54 71 86 101 116 131 146 147 163 180
b 37 5 22 39 54 71 86 101 116 131 147 148 163 180
b 38 5 22 39 54 71 86 101 116 131 133 148 163 180
b 39 5 22 39 54 71 86 101 116 118 133 148 163 180
b 40 101 116 117 118 133
b 41 5 22 39 54 71 86 101 118 133 148 163 165 180
b 42 148 163 164 165 180
b 43 5 22 39 54 71 86 101 118 133 148 150 165 180
b 44 5 22 39 54 71 86 101 118 133 150 165 180 182
b 45 165 180 181 182
b 46 5 22 39 54 71 86 101 118 133 150 165 167 182
b 47 5 22 39 54 71 86 101 118 133 150 167 182 184
b 48 167 182 183 184
b 49 5 22 39 54 71 86 101 118 133 135 150 167 184
b 50 5 22 39 54 71 86 101 118 135 150 152 167 184
b 51 5 22 39 54 71 86 101 118 135 152 167 169 184
b 52 5 22 39 54 56 71 86 101 118 135 152 169 184
b 53 5 22 39 56 71 86 101 103 118 135 152 169 184
b 54 5 22 39 56 71 86 88 103 118 135 152 169 184
b 55 71 86 87 88 103
b 56 5 22 39 56 71 88 103 118 120 135 152 169 184
b 57 103 118 119 120 135
b 58 5 22 39 56 71 88 103 105 120 135 152 169 184
b 59 5 22 39 56 71 73 88 105 120 135 152 169 184
b 60 56 71 72 73 88
b 61 5 22 39 56 73 88 90 105 120 135 152 169 184
b 62 5 9 22 24 39 56 73 90 105 120 135 152 169 184
b 63 9 24 26 39 41 56 73 90 105 120 135 152 169 184
b 64 9 26 39 41 56 58 73 90 105 120 135 152 169 184
b 65 41 56 57 58 73
b 66 9 24 25 26 41
b 67 24 39 40 41 56
b 68 5 7 9 22 24 39
b 69 7 8 9 24
b 70 5 6 7 22
b 71 7 22 23 24 39
b 72 73 88 89 90 105
b 73 88 103 104 105 120
b 74 86 101 102 103 118
b 75 39 54 55 56 71
b 76 152 167 168 169 184
b 77 135 150 151 152 167
b 78 118 133 134 135 150
b 79 150 165 166 167 182
b 80 133 148 149 150 165
b 81 116 131 132 133 148
b 82 145 146 163 179 180
b 83 145 146 162 163 179
b 84 81 98 113 115 130 145
b 85 81 97 98 113
b 86 113 129 130 145
b 87 98 113 114 115 130
b 88 83 98 99 100 115
b 89 22 37 38 39 54
b 90 49 65 66 81
b 91 34 49 50 51 66
b 92 3 19 33 34 49
b 93 3 18 19 33 34
b 94 26 41 42 43 58
b 95 58 73 74 75 90
b 96 43 58 59 60 75
b 97 120 135 136 137 152
b 98 137 152 153 154 169
b 99 60 75 76 77 92
b 100 77 92 93 94 109
b 101 75 90 91 92 107
b 102 92 107 108 109 124
b 103 90 105 106 107 122
b 104 105 120 121 122 137
b 105 107 122 123 124 139
b 106 122 137 138 139 154
b 107 9 26 41 58 73 90 105 120 135 137 152 169 184
b 108 9 26 41 43 58 73 90 105 120 137 152 169 184
b 109 9 26 43 58 73 75 90 105 120 137 152 169 184
b 110 9 26 43 58 60 75 90 105 120 137 152 169 184
b 111 9 26 43 60 75 90 105 120 122 137 152 169 184
b 112 9 26 43 60 75 90 105 122 137 152 154 169 184
b 113 9 26 43 60 75 90 105 122 137 139 154 169 184
b 114 9 26 43 60 75 90 105 107 122 139 154 169 184
b 115 9 26 43 60 75 90 107 122 124 139 154 169 184
b 116 9 26 43 60 75 90 92 107 124 139 154 169 184
b 117 9 26 43 60 75 92 107 109 124 139 154 169 184
b 118 9 26 43 60 75 77 92 109 124 139 154 169 184
b 119 9 26 43 60 77 92 94 109 124 139 154 169 184
b 120 9 26 43 60 77 94 96 109 111 124 139 154 169 184
b 121 9 13 26 28 43 60 77 94 96 111
b 122 9 11 13 26 28 43
b 123 9 10 11 26
b 124 11 12 13 28
b 125 11 26 27 28 43
b 126 13 28 43 60 77 79 94 96 111
b 127 79 94 95 96 111
b 128 13 28 43 60 62 77 79 94 96
b 129 13 28 43 45 60 62 77 79 96
b 130 13 28 45 62 64 79 96
b 131 64 79 80 96
b 132 13 28 45 47 62 64 79
b 133 13 28 30 45 47 62 64
b 134 13 28 29 30 45
b 135 30 45 46 47 62
b 136 13 30 47 48 64
b 137 13 14 30 47 48
b 138 14 30 31 47 48
b 139 47 62 63 64 79
b 140 28 43 44 45 60
b 141 45 60 61 62 77
b 142 62 77 78 79 94
b 143 94 96 109 111 124 139 154 169 171 184 188
b 144 94 96 109 111 124 139 154 156 171 188
b 145 139 154 155 156 171
b 146 94 96 109 111 124 139 141 156 171 188
b 147 124 139 140 141 156
b 148 94 96 109 111 124 126 141 156 171 188
b 149 94 109 110 111 126
b 150 109 124 125 126 141
b 151 96 111 126 128 141 156 171 188
b 152 96 111 112 128
b 153 111 126 128 141 156 171 173 188
b 154 111 126 128 141 143 156 173 188
b 155 126 128 141 143 156 158 173 188
b 156 126 141 142 143 158
b 157 128 143 158 173 188 190
b 158 173 188 189 190
b 159 128 143 158 160 173 190
b 160 128 143 144 160
b 161 143 158 160 173 174 190
b 162 143 158 159 160 174 190
b 163 159 160 174 175 190
b 164 141 156 157 158 173
b 165 111 126 127 128 143
b 166 156 171 172 173 188
b 167 154 169 171 184 186 188
b 168 171 186 187 188
b 169 169 184 185 186
b 170 154 169 170 171 186
b 171 176 191 192
b 172 161 177 178
b 173 15 16 32
1 2
2 4
3 173
3 5
4 93
5 138
6 172
6 8
7 171
7 9
8 83
9 163
10 11
11 92
11 12
12 14
12 13
14 91
14 15
15 90
15 16
16 18
16 17
18 20
18 19
20 22
20 21
22 24
22 23
24 89
24 25
25 30
25 26
26 27
26 28
28 29
30 88
30 31
31 32
32 84
32 33
33 34
34 35
35 82
35 36
36 37
37 38
38 81
38 39
39 41
39 40
41 43
41 42
43 80
43 44
44 46
44 45
46 79
46 47
47 49
47 48
49 78
49 50
50 77
50 51
51 76
51 52
52 75
52 53
53 74
53 54
54 56
54 55
56 58
56 57
58 73
58 59
59 61
59 60
61 72
61 62
62 68
62 63
63 67
63 66
63 64
64 107
64 65
68 70
68 71
68 69
82 83
84 85
84 86
84 87
92 93
94 108
95 109
96 110
97 107
98 112
99 118
100 119
101 116
102 117
103 114
104 111
105 115
106 113
107 108
108 109
109 110
110 111
111 112
112 113
113 114
114 115
115 116
116 117
117 118
118 119
119 120
120 121
120 143
121 122
121 126
122 123
122 124
122 125
126 127
126 128
128 142
128 129
129 140
129 141
129 130
130 131
130 132
132 139
132 133
133 136
133 134
133 135
136 137
137 138
143 167
143 144
144 145
144 146
146 147
146 148
148 149
148 150
148 151
151 152
151 153
153 166
153 154
154 165
154 155
155 156
155 164
155 157
157 158
157 159
159 160
159 161
161 162
162 163
167 169
167 170
167 168
